language Essence 1.3

letting A be 8
letting T be 127
letting X be 17
letting Y be 17
letting Z be 5
letting building be
        [[0, 0, 0, 0, 0, 0, 0, 0, 0, 0, 0, 0, 0, 0, 0, 0, 0; int(0..16)],
         [0, 1, 3, 4, 4, 2, 1, 3, 4, 4, 3, 3, 2, 2, 1, 2, 0; int(0..16)],
         [0, 4, 3, 4, 3, 1, 3, 0, 2, 4, 0, 1, 2, 4, 2, 4, 0; int(0..16)],
         [0, 2, 0, 4, 4, 3, 0, 3, 1, 3, 3, 3, 0, 2, 2, 1, 0; int(0..16)],
         [0, 3, 4, 3, 4, 4, 2, 2, 1, 2, 0, 3, 3, 1, 4, 3, 0; int(0..16)],
         [0, 2, 4, 0, 1, 0, 1, 4, 3, 0, 2, 1, 1, 4, 2, 4, 0; int(0..16)],
         [0, 3, 4, 1, 1, 3, 3, 0, 2, 4, 3, 0, 2, 1, 4, 2, 0; int(0..16)],
         [0, 0, 3, 1, 3, 0, 4, 4, 2, 3, 3, 3, 4, 3, 0, 4, 0; int(0..16)],
         [0, 3, 4, 1, 3, 4, 4, 4, 2, 0, 4, 4, 1, 4, 3, 4, 0; int(0..16)],
         [0, 1, 3, 1, 3, 2, 0, 1, 2, 2, 0, 4, 0, 4, 1, 3, 0; int(0..16)],
         [0, 3, 3, 0, 0, 0, 0, 0, 0, 2, 0, 1, 1, 0, 0, 0, 0; int(0..16)],
         [0, 0, 0, 0, 0, 0, 0, 0, 0, 0, 0, 0, 0, 0, 0, 0, 0; int(0..16)],
         [0, 0, 0, 0, 0, 0, 0, 0, 0, 0, 0, 0, 0, 0, 0, 0, 0; int(0..16)],
         [0, 0, 0, 0, 2, 0, 0, 0, 0, 0, 0, 0, 0, 0, 0, 0, 0; int(0..16)],
         [0, 0, 0, 0, 0, 0, 0, 0, 0, 0, 0, 0, 0, 0, 0, 0, 0; int(0..16)],
         [0, 0, 0, 0, 0, 0, 0, 0, 0, 0, 0, 0, 0, 0, 0, 0, 0; int(0..16)],
         [0, 0, 0, 0, 0, 0, 0, 0, 0, 0, 0, 0, 0, 0, 0, 0, 0; int(0..16)];
             int(0..16)]
$ Visualisation for building
$ 0 0 0 0 0 0 0 0 0 0 0 0 0 0 0 0 0
$ 0 1 3 4 4 2 1 3 4 4 3 3 2 2 1 2 0
$ 0 4 3 4 3 1 3 0 2 4 0 1 2 4 2 4 0
$ 0 2 0 4 4 3 0 3 1 3 3 3 0 2 2 1 0
$ 0 3 4 3 4 4 2 2 1 2 0 3 3 1 4 3 0
$ 0 2 4 0 1 0 1 4 3 0 2 1 1 4 2 4 0
$ 0 3 4 1 1 3 3 0 2 4 3 0 2 1 4 2 0
$ 0 0 3 1 3 0 4 4 2 3 3 3 4 3 0 4 0
$ 0 3 4 1 3 4 4 4 2 0 4 4 1 4 3 4 0
$ 0 1 3 1 3 2 0 1 2 2 0 4 0 4 1 3 0
$ 0 3 3 0 0 0 0 0 0 2 0 1 1 0 0 0 0
$ 0 0 0 0 0 0 0 0 0 0 0 0 0 0 0 0 0
$ 0 0 0 0 0 0 0 0 0 0 0 0 0 0 0 0 0
$ 0 0 0 0 2 0 0 0 0 0 0 0 0 0 0 0 0
$ 0 0 0 0 0 0 0 0 0 0 0 0 0 0 0 0 0
$ 0 0 0 0 0 0 0 0 0 0 0 0 0 0 0 0 0
$ 0 0 0 0 0 0 0 0 0 0 0 0 0 0 0 0 0

